n = 6;
Min = 1;
Max = 3;
Distancia = [|0, 337, 306, 312, 336, 316,
              |337, 0, 311, 327, 343, 349,
              |306, 311, 0, 319, 337, 326,
              |312, 327, 319, 0, 318, 325,
              |336, 343, 337, 318, 0, 349,
              |316, 349, 326, 325, 349, 0|];